Translating instance to solver...

Set parameter TimeLimit to value 28800
Gurobi Optimizer version 11.0.2 build v11.0.2rc0 (linux64 - "Ubuntu 22.04.4 LTS")

CPU model: Intel(R) Xeon(R) Gold 5120 CPU @ 2.20GHz, instruction set [SSE2|AVX|AVX2|AVX512]
Thread count: 28 physical cores, 56 logical processors, using up to 28 threads

Academic license 2463511 - for non-commercial use only - registered to lu___@cefet-rj.br
Optimize a model with 40945 rows, 21383 columns and 96975 nonzeros
Model fingerprint: 0xe83516a0
Variable types: 1 continuous, 21382 integer (21340 binary)
Coefficient statistics:
  Matrix range     [1e+00, 1e+05]
  Objective range  [3e-01, 8e-01]
  Bounds range     [1e+00, 4e+01]
  RHS range        [1e+00, 8e+01]
Presolve removed 32334 rows and 17818 columns
Presolve time: 0.58s
Presolved: 8611 rows, 3565 columns, 25866 nonzeros
Variable types: 0 continuous, 3565 integer (3524 binary)

Root relaxation: objective 1.710701e+00, 760 iterations, 0.03 seconds (0.03 work units)

    Nodes    |    Current Node    |     Objective Bounds      |     Work
 Expl Unexpl |  Obj  Depth IntInf | Incumbent    BestBd   Gap | It/Node Time

     0     0    1.71070    0   50          -    1.71070      -     -    0s
H    0     0                       2.5735640    1.71070  33.5%     -    0s
     0     0    1.76767    0  111    2.57356    1.76767  31.3%     -    1s
H    0     0                       2.2676730    1.79041  21.0%     -    1s
     0     0    1.79041    0   95    2.26767    1.79041  21.0%     -    1s
     0     0    1.79394    0  116    2.26767    1.79394  20.9%     -    1s
     0     0    1.81767    0  114    2.26767    1.81767  19.8%     -    1s
     0     0    1.81767    0  138    2.26767    1.81767  19.8%     -    1s
     0     0    1.81767    0  118    2.26767    1.81767  19.8%     -    1s
     0     0    1.81767    0  133    2.26767    1.81767  19.8%     -    2s
     0     0    1.81767    0  148    2.26767    1.81767  19.8%     -    2s
H    0     0                       2.1235640    1.81767  14.4%     -    2s
     0     0    1.81767    0   96    2.12356    1.81767  14.4%     -    2s
     0     0    1.81767    0   96    2.12356    1.81767  14.4%     -    2s
     0     0    1.82428    0  117    2.12356    1.82428  14.1%     -    3s
     0     0    1.82513    0  142    2.12356    1.82513  14.1%     -    3s
     0     0    1.85155    0   99    2.12356    1.85155  12.8%     -    4s
     0     0    1.85155    0   52    2.12356    1.85155  12.8%     -    4s
     0     0    1.85155    0   92    2.12356    1.85155  12.8%     -    5s
     0     0    1.85155    0  143    2.12356    1.85155  12.8%     -    5s
     0     0    1.85155    0  149    2.12356    1.85155  12.8%     -    5s
     0     0    1.85155    0  149    2.12356    1.85155  12.8%     -    6s
     0     0    1.85155    0  123    2.12356    1.85155  12.8%     -    6s
     0     0    1.85155    0  145    2.12356    1.85155  12.8%     -    6s
     0     0    1.85155    0   91    2.12356    1.85155  12.8%     -    7s
     0     0    1.85155    0  177    2.12356    1.85155  12.8%     -    7s
     0     0    1.85155    0  153    2.12356    1.85155  12.8%     -    7s
     0     2    1.85155    0  153    2.12356    1.85155  12.8%     -    8s
    71    52    2.10787    7   71    2.12356    1.85155  12.8%   320   10s

Cutting planes:
  Learned: 108
  Gomory: 2
  Implied bound: 232
  Clique: 2
  MIR: 37
  Zero half: 4
  RLT: 69
  Relax-and-lift: 33
  BQP: 2

Explored 1110 nodes (140039 simplex iterations) in 12.78 seconds (10.79 work units)
Thread count was 28 (of 56 available processors)

Solution count 3: 2.12356 2.26767 2.57356 

Optimal solution found (tolerance 1.00e-04)
Best objective 2.123564000000e+00, best bound 2.123564000000e+00, gap 0.0000%

Solver Wallclock Time (for this epsilon): 12.785494089126587 s
Python wallclock Time (for this epsilon): 15.75613284111023 s


Total Elapsed Time (since program call): 148.4741826057434 s

Results:

I = 2.123564 mA
C = 81.0 points
C ~= 32.4 km^2

Minimum Epsilon for this instance = 9
Maximum Epsilon for this instance = 98

Current Epsilon = 81


Preprocessing Time (for this epsilon): 0.0067865848541259766 s


Updated solution vectors:
sol_I = [-0.611782,-0.9176730000000001,-1.061782,-1.061782,-1.0617818536323502,-1.061782,-1.511782,-1.511782,-2.123564]
sol_C = [11.0,19.0,51.0,51.0,48.99999437626569,54.0,68.0,73.0,81.0]
sol_eps = [9,18,27,36,45,54,63,72,81]
sol_gap = [0.0,0.0,0.0,0.0,0.0,0.0,0.0,9.729729577578894e-08,0.0]
